
Gurobi 13.0.1 (linux64) logging started Sun Mar 22 03:13:18 2026

Set parameter LogFile to value "logs/75B_6F_robust_gamma_0d5_theta_0d05199999999999999_2026-03-22_03h12m47s.log"
Gurobi Optimizer version 13.0.1 build v13.0.1rc0 (linux64 - "Linux Mint 22")

CPU model: 12th Gen Intel(R) Core(TM) i7-12700, instruction set [SSE2|AVX|AVX2]
Thread count: 20 physical cores, 20 logical processors, using up to 20 threads

Non-default parameters:
TimeLimit  3600
SoftMemLimit  12

Optimize a model with 90326 rows, 1733346 columns and 5286408 nonzeros (Max)
Model fingerprint: 0xb90e9145
Model has 1665086 linear objective coefficients
Variable types: 23346 continuous, 1710000 integer (1710000 binary)
Coefficient statistics:
  Matrix range     [3e-05, 1e+05]
  Objective range  [1e+00, 3e+03]
  Bounds range     [1e+00, 1e+05]
  RHS range        [1e-02, 1e+05]

Presolve removed 46314 rows and 1252620 columns
Presolve time: 3.49s
Presolved: 44012 rows, 480726 columns, 1506877 nonzeros
Variable types: 11328 continuous, 469398 integer (469398 binary)
Found heuristic solution: objective -3.90470e+08
Deterministic concurrent LP optimizer: primal simplex, dual simplex, and barrier
Showing barrier log only...

Root barrier log...

Ordering time: 0.97s

Barrier statistics:
 AA' NZ     : 7.621e+05
 Factor NZ  : 6.411e+06 (roughly 260 MB of memory)
 Factor Ops : 1.809e+09 (less than 1 second per iteration)
 Threads    : 18

                  Objective                Residual
Iter       Primal          Dual         Primal    Dual     Compl     Time
   0  -1.43640279e+12  1.90875584e+09  2.08e+07 1.02e+03  8.71e+06     6s
   1  -1.90229044e+11  3.43684641e+09  2.76e+06 2.98e+02  1.17e+06     6s
   2  -1.35408346e+09  2.74823846e+09  2.08e+04 5.43e+01  1.16e+04     6s
   3  -3.31997010e+07  1.74513903e+09  3.89e+03 1.25e+01  3.01e+03     7s
   4   2.16749334e+08  6.34971769e+08  6.04e+02 1.48e+00  5.59e+02     7s
   5   2.48847807e+08  3.63238536e+08  1.75e+02 3.79e-01  1.51e+02     7s
   6   2.57596939e+08  2.96518409e+08  6.41e+01 1.39e-01  5.15e+01     7s
   7   2.59779336e+08  2.79990745e+08  3.64e+01 5.74e-02  2.69e+01     7s
   8   2.61463454e+08  2.75074943e+08  1.51e+01 3.97e-02  1.64e+01     7s
   9   2.62378284e+08  2.67302357e+08  4.09e+00 1.18e-02  5.53e+00     7s
  10   2.62687755e+08  2.65088044e+08  1.02e+00 5.57e-03  2.52e+00     7s
  11   2.62813437e+08  2.63739755e+08  2.40e-01 1.96e-03  9.47e-01     7s
  12   2.62866280e+08  2.63484740e+08  1.45e-01 1.30e-03  6.31e-01     8s
  13   2.62970508e+08  2.63133240e+08  2.77e-03 2.83e-04  1.66e-01     8s
  14   2.62988403e+08  2.63066439e+08  9.90e-04 1.30e-04  7.95e-02     8s
  15   2.62998150e+08  2.63030182e+08  3.13e-04 5.13e-05  3.26e-02     8s
  16   2.63000297e+08  2.63022868e+08  1.97e-04 3.64e-05  2.30e-02     8s
  17   2.63002543e+08  2.63016266e+08  8.57e-05 2.29e-05  1.40e-02     8s
  18   2.63003040e+08  2.63013033e+08  6.57e-05 1.62e-05  1.02e-02     8s
  19   2.63003618e+08  2.63010254e+08  4.55e-05 1.04e-05  6.76e-03     8s
  20   2.63003764e+08  2.63008816e+08  3.97e-05 7.48e-06  5.14e-03     8s
  21   2.63004369e+08  2.63007399e+08  1.72e-05 4.73e-06  3.09e-03     9s
  22   2.63004652e+08  2.63006796e+08  8.40e-06 3.58e-06  2.18e-03     9s
  23   2.63004733e+08  2.63006202e+08  5.66e-06 2.42e-06  1.50e-03     9s
  24   2.63004780e+08  2.63005902e+08  4.17e-06 1.83e-06  1.14e-03     9s
  25   2.63004790e+08  2.63005827e+08  3.85e-06 1.69e-06  1.06e-03     9s
  26   2.63004833e+08  2.63005297e+08  2.62e-06 6.55e-07  4.73e-04     9s
  27   2.63004889e+08  2.63005136e+08  1.23e-06 3.46e-07  2.51e-04     9s
  28   2.63004917e+08  2.63005071e+08  5.97e-07 2.27e-07  1.57e-04    10s
  29   2.63004929e+08  2.63005031e+08  3.38e-07 1.52e-07  1.04e-04    10s
  30   2.63004931e+08  2.63005010e+08  2.91e-07 1.14e-07  8.03e-05    10s
  31   2.63004933e+08  2.63004991e+08  2.61e-07 7.79e-08  5.92e-05    10s
  32   2.63004936e+08  2.63004971e+08  1.98e-07 4.06e-08  3.58e-05    10s
  33   2.63004939e+08  2.63004964e+08  1.48e-07 2.73e-08  2.54e-05    10s
  34   2.63004944e+08  2.63004954e+08  4.62e-08 1.15e-08  1.02e-05    10s
  35   2.63004945e+08  2.63004952e+08  3.87e-08 8.08e-09  7.75e-06    11s
  36   2.63004946e+08  2.63004947e+08  3.03e-08 1.35e-09  1.46e-06    11s
  37   2.63004947e+08  2.63004947e+08  1.29e-08 1.19e-09  5.50e-07    11s
  38   2.63004947e+08  2.63004947e+08  7.25e-09 1.19e-09  4.65e-08    11s
  39   2.63004947e+08  2.63004947e+08  5.66e-07 8.48e-10  7.97e-10    11s

Barrier solved model in 39 iterations and 11.28 seconds (14.14 work units)
Optimal objective 2.63004947e+08


Root crossover log...

   17531 DPushes remaining with DInf 0.0000000e+00                11s
       0 DPushes remaining with DInf 0.0000000e+00                12s

    9284 PPushes remaining with PInf 1.9910703e-02                12s
       0 PPushes remaining with PInf 0.0000000e+00                12s

  Push phase complete: Pinf 0.0000000e+00, Dinf 5.5353995e+04     12s


Root simplex log...

Iteration    Objective       Primal Inf.    Dual Inf.      Time
   25770    2.6300495e+08   0.000000e+00   5.535399e+04     12s
   30057    2.6300495e+08   0.000000e+00   0.000000e+00     15s
Crossover time: 3.29 seconds (4.32 work units)
Concurrent spin time: 1.42s (can be avoided by choosing Method=3)

Solved with barrier

Root relaxation: objective 2.630049e+08, 30057 iterations, 11.59 seconds (11.50 work units)

    Nodes    |    Current Node    |     Objective Bounds      |     Work
 Expl Unexpl |  Obj  Depth IntInf | Incumbent    BestBd   Gap | It/Node Time

     0     0 2.6300e+08    0 6229 -3.905e+08 2.6300e+08   167%     -   19s
H    0     0                    1.731911e+08 2.6300e+08  51.9%     -   20s
H    0     0                    2.191401e+08 2.6300e+08  20.0%     -   21s
H    0     0                    2.308518e+08 2.6300e+08  13.9%     -   22s
H    0     0                    2.313840e+08 2.6300e+08  13.7%     -   33s
H    0     0                    2.317937e+08 2.6300e+08  13.5%     -   36s
H    0     0                    2.324281e+08 2.6300e+08  13.2%     -   37s
H    0     0                    2.326526e+08 2.6300e+08  13.0%     -   40s
H    0     0                    2.331556e+08 2.6300e+08  12.8%     -   40s
H    0     0                    2.391720e+08 2.6300e+08  10.0%     -   43s
H    0     0                    2.394348e+08 2.6300e+08  9.84%     -   45s
     0     0 2.6300e+08    0 6529 2.3943e+08 2.6300e+08  9.84%     -   88s
H    0     0                    2.394364e+08 2.6300e+08  9.84%     -   97s
H    0     0                    2.410956e+08 2.6300e+08  9.09%     -  112s
H    0     0                    2.414571e+08 2.6300e+08  8.92%     -  156s
H    0     0                    2.414846e+08 2.6300e+08  8.91%     -  167s
H    0     0                    2.414848e+08 2.6300e+08  8.91%     -  167s
     0     0 2.6300e+08    0 6563 2.4148e+08 2.6300e+08  8.91%     -  171s
     0     0 2.6300e+08    0 6323 2.4148e+08 2.6300e+08  8.91%     -  200s
     0     0 2.6300e+08    0 6655 2.4148e+08 2.6300e+08  8.91%     -  246s
     0     0 2.6300e+08    0 7600 2.4148e+08 2.6300e+08  8.91%     -  279s
     0     0 2.6300e+08    0 7712 2.4148e+08 2.6300e+08  8.91%     -  286s
     0     0 2.6300e+08    0 7511 2.4148e+08 2.6300e+08  8.91%     -  312s
     0     0 2.6300e+08    0 7511 2.4148e+08 2.6300e+08  8.91%     -  317s
     0     0 2.6300e+08    0 6786 2.4148e+08 2.6300e+08  8.91%     -  320s
H    0     2                    2.468135e+08 2.6300e+08  6.56%     -  631s
     0     2 2.6300e+08    0 6554 2.4681e+08 2.6300e+08  6.56%     -  631s
H    1     4                    2.468137e+08 2.6300e+08  6.56%   0.0  906s
H    2     4                    2.472839e+08 2.6300e+08  6.36%   2.0  906s
     3     8 2.6300e+08    2 7265 2.4728e+08 2.6300e+08  6.36%  1632  931s
     7    16 2.6300e+08    3 7765 2.4728e+08 2.6300e+08  6.36%  2932  962s
    15    32 2.6300e+08    4 8143 2.4728e+08 2.6300e+08  6.36%  2984 1215s
    31    52 2.6300e+08    5 7977 2.4728e+08 2.6300e+08  6.36%  5487 1296s
    51    65 2.6300e+08    6 7337 2.4728e+08 2.6300e+08  6.36%  4297 1351s

Cutting planes:
  MIR: 30
  Flow cover: 85
  RLT: 4071

Explored 64 nodes (314324 simplex iterations) in 1352.24 seconds (2382.68 work units)
Thread count was 20 (of 20 available processors)

Solution count 10: 2.47284e+08 2.46814e+08 2.46813e+08 ... 2.33156e+08

Memory limit reached
Best objective 2.472839245837e+08, best bound 2.630041015335e+08, gap 6.3571%
